56916
59712
52898
57367
58639
54646
51769
55985
53475
52814
58411
51739
57530
50286
50226
58981
51054
52959
58102
55729
54922
53249
56024
52863
52870
51048
55532
52739
54525
58502
59182
52279
56479
51724
51162
58927
57149
56087
50419
53528
56241
50086
56703
51391
56667
54553
56616
58158
51522
54485
56142
52337
57830
52526
53895
52148
50867
57101
53785
53265
56038
57152
59145
52933
58475
53112
54395
58710
51907
53794
59532
58595
54424
54933
57434
54498
58569
52814
53597
53103
58696
56428
50179
55654
52618
59811
56028
54632
54298
57713
55100
58209
57638
53647
51837
52080
54150
54196
51964
56107
